FORMULA: C8H6Cl2O3
MONOISOTOPIC_MASS: 219.9694
MZ: 218.9621236
ADDUCT: [M-H]-
COMPOUND_NAME: 2,4-Dichlorophenoxyacetic acid ou 2,4-D
IONMODE: esi-
RETENTION_TIME: 484.2
NUM PEAKS: 15
219.96939951422002      0.5225635453179658
220.97275434942         0.04559141009293289
220.97361665162         0.0005987441225255755
220.97567626014         0.0003628364355486698
221.96644942422         0.334405905467267
221.97364450772002      0.0032237892203384913
221.97610918462         0.0017402233721379868
222.96980425942002      0.029175469491236544
222.97066656162         0.0003831564069677663
222.97699934292         0.00028126167183781817
223.96349933422         0.053499383287126764
223.97069441772         0.002063010638461091
223.97315909462         0.0011136271898205391
224.96685416942         0.004667589894121415
225.96774432772         0.0003300473917116677

FORMULA: C9H15N3O1
MONOISOTOPIC_MASS: 181.12151
MZ: 180.1142336
ADDUCT: [M-H]-
COMPOUND_NAME: 2-diethylamino-6-methyl pyrimidin-4-ol/one
IONMODE: esi-
RETENTION_TIME: 451.8
NUM PEAKS: 7
181.12151211685         0.8942404353969552
182.11854701205002      0.009806145755405286
182.12486695205         0.08777093833715552
182.12778886277         0.0015522658201573055
183.12190184725         0.0009624867992474222
183.12575711034998      0.001838910439284071
183.12822178725         0.0038288174517951763

FORMULA: C5H2Cl3N1O1
MONOISOTOPIC_MASS: 196.9202
MZ: 195.9129236
ADDUCT: [M-H]-
COMPOUND_NAME: 3,5,6-Trichloro-2-pyridinol
IONMODE: esi-
RETENTION_TIME: 499.2
NUM PEAKS: 18
196.92019687894         0.4096301224654774
197.91723177414002      0.0014973201567495226
197.92355171414002      0.022336535751334128
197.92441401634         0.00015644899740464434
198.91724678894002      0.39320404160527056
198.92444187244         0.0008423608222464233
198.92690654934         0.0004871915437934384
199.91428168414004      0.0014372779366599636
199.92060162414         0.021440845414451643
199.92146392634         0.0001501754258557562
200.91429669894         0.1258122143656151
200.92149178244         0.0008085823322847721
200.92395645934002      0.00046765526642058853
201.91133159414002      0.00045988113227880015
201.91765153414         0.006860357356578218
202.91134660894002      0.01341857458955081
202.91854169244         0.00025871945086410113
203.91470144414004      0.0007316953871640758

FORMULA: C13H10O3
MONOISOTOPIC_MASS: 214.06299
MZ: 213.0557136
ADDUCT: [M-H]-
COMPOUND_NAME: 3-phenoxybenzoic acid
IONMODE: esi-
RETENTION_TIME: 517.8
NUM PEAKS: 7
214.0629941833          0.8617733308802118
215.0663490185          0.122177245699438
215.06721132069998      0.0009874047308444638
215.06927092921998      0.0009972718993668725
216.0672391768          0.005316435865759403
216.0697038537          0.007994577352289409
217.07059401200002      0.0007537335720899435

FORMULA: C13H9FO3
MONOISOTOPIC_MASS: 232.05357
MZ: 231.0462936
ADDUCT: [M-H]-
COMPOUND_NAME: 4-Fluoro-3-phenoxybenzoic acid
IONMODE: esi-
RETENTION_TIME: 532.2
NUM PEAKS: 7
232.05357231473         0.8618592816844952
233.05692714993         0.12218943130806233
233.05778945213         0.0009875032117648266
233.05984906065         0.0008976342279693313
234.05781730823         0.005316966111848727
234.06028198513         0.007995374708541584
235.06117214343         0.0007538087473180632

FORMULA: C6H5NO3
MONOISOTOPIC_MASS: 139.02694
MZ: 138.0196636
ADDUCT: [M-H]-
COMPOUND_NAME: 4-nitrophenol
IONMODE: esi-
RETENTION_TIME: 165.0
NUM PEAKS: 7
139.02694302615         0.9269841016630451
140.02397792135         0.0033884031087665005
140.03029786135         0.06065651638046227
140.03116016355         0.0010621220854732224
140.03321977207         0.0005363679535105604
141.03118801965002      0.005718732929500704
141.03365269655         0.0016537558792417216

FORMULA: C6H4Cl1N1O2
MONOISOTOPIC_MASS: 156.99306
MZ: 155.9857836
ADDUCT: [M-H]-
COMPOUND_NAME: 6-Chloronicotinic acid
IONMODE: esi-
RETENTION_TIME: 172.2
NUM PEAKS: 12
156.99305610368         0.704139572577026
157.99009099888         0.002573839953074813
157.99641093888         0.04607485008807111
157.99727324108002      0.0005378604947290939
157.99933284960002      0.00032594121159262304
158.99010601368         0.22530124178455518
158.99730109718         0.0028959764275256236
158.99976577408         0.0012561973348484581
159.98714090887998      0.0008235431726414189
159.99346084888         0.014742419463641344
160.99435100718         0.0009266161294023132
160.99681568408         0.00040194136289200877

FORMULA: C19H28N2O5S
MONOISOTOPIC_MASS: 396.17189
MZ: 395.1646136
ADDUCT: [M-H]-
COMPOUND_NAME: Acetochlor mercapturate
IONMODE: esi-
RETENTION_TIME: 607.2
NUM PEAKS: 23
396.17189318706         0.7563049373308047
397.16892808226004      0.005529039810347622
397.17128092306         0.005987217034513899
397.17524802225995      0.15671279798884924
397.17611032445996      0.001444268166430542
397.17816993298         0.0024506173214130216
398.1676890429599       0.03385643845421131
398.17228291746         0.0011456639459862753
398.17463575825997      0.0012406021530899731
398.17613818056         0.007776303718151215
398.17860285746         0.015381578359087114
398.17946515965997      0.0002992646143582652
398.18152476817994      0.0005077886951180841
399.16472393815997      0.00024751074177906736
399.17104387816         0.007015341217818888
399.1739657888799       0.00010970333581328158
399.17563775266007      0.0001124485044266948
399.1779905934599       0.00012176682105799301
399.17949301576         0.0016113160889620608
399.18195769266         0.000950566483189085
400.17193403645996      0.00034811084159256853
400.17439871335995      0.000688565465248683
400.18284785096         0.00015815290775033733

FORMULA: C19H28N2O5S1
MONOISOTOPIC_MASS: 396.17189
MZ: 395.1646136
ADDUCT: [M-H]-
COMPOUND_NAME: Alachlor mercapturate
IONMODE: esi-
RETENTION_TIME: 607.2
NUM PEAKS: 23
396.17189318706         0.7563049373308047
397.16892808226004      0.005529039810347622
397.17128092306         0.005987217034513899
397.17524802225995      0.15671279798884924
397.17611032445996      0.001444268166430542
397.17816993298         0.0024506173214130216
398.1676890429599       0.03385643845421131
398.17228291746         0.0011456639459862753
398.17463575825997      0.0012406021530899731
398.17613818056         0.007776303718151215
398.17860285746         0.015381578359087114
398.17946515965997      0.0002992646143582652
398.18152476817994      0.0005077886951180841
399.16472393815997      0.00024751074177906736
399.17104387816         0.007015341217818888
399.1739657888799       0.00010970333581328158
399.17563775266007      0.0001124485044266948
399.1779905934599       0.00012176682105799301
399.17949301576         0.0016113160889620608
399.18195769266         0.000950566483189085
400.17193403645996      0.00034811084159256853
400.17439871335995      0.000688565465248683
400.18284785096         0.00015815290775033733

FORMULA: C10H12N2O3S1
MONOISOTOPIC_MASS: 240.05686
MZ: 239.0495836
ADDUCT: [M-H]-
COMPOUND_NAME: Bentazone
IONMODE: esi-
RETENTION_TIME: 747.6
NUM PEAKS: 16
240.05686343034         0.8395150928104418
241.05389832554         0.00613735563583442
241.05625116634002      0.006645942418603682
241.06021826554002      0.09155507789066666
241.06108056774002      0.0009619016330079304
241.06314017626         0.001165816737864122
242.05265928624002      0.037581390346902
242.05725316074         0.000669322181451737
242.05960600154         0.0007247871789358469
242.06110842384         0.0051791207610301
242.06357310074         0.004493128904659751
243.04969418144         0.00027474235999248663
243.05601412144         0.004098517286844142
243.06446325904002      0.0005648198689244362
244.05690427974002      0.00023184640829079735
244.05936895664001      0.00020113757654991151

FORMULA: C4H11O3P1S1
MONOISOTOPIC_MASS: 170.01665
MZ: 169.0093736
ADDUCT: [M-H]-
COMPOUND_NAME: Diethylthiophosphate
IONMODE: esi-
RETENTION_TIME: 177.0
NUM PEAKS: 10
170.01665238827         0.9026048715935157
171.01604012427         0.007145386729474967
171.02000722347         0.039374186375419326
171.02086952566998      0.0010341887922945955
171.02292913418998      0.0011489758230597536
172.01244824417         0.040405641660132115
172.01939495947         0.000311702049994582
172.02089738177         0.005568333040716883
172.02336205867         0.0006441051622577155
173.01580307937         0.0017626087731342562

FORMULA: C14H17Cl2NO2
MONOISOTOPIC_MASS: 301.06363
MZ: 300.0563536
ADDUCT: [M-H]-
COMPOUND_NAME: Fenhexamid
IONMODE: esi-
RETENTION_TIME: 689.4
NUM PEAKS: 24
301.06363425319         0.48837284631402844
302.06066914839005      0.001785148275702697
302.06698908839         0.07456473399185076
302.06785139059         0.0003730460138312775
302.06991099911         0.000960773381588713
303.06068416319         0.31252613264076146
303.06402398359006      0.00027255632109446197
303.06787924669         0.0020085737343136017
303.07034392359         0.005285678669198606
304.05771905839003      0.0011423761394730554
304.06403899839         0.04771646933637238
304.06490130059         0.00023872463196853257
304.06696090911         0.000614831048774224
304.07123408189         0.0003066689053916182
304.07369875879         0.00023057630596894335
305.05773407319         0.04999898352281978
305.06107389359005      0.00017441791369308352
305.06492915668997      0.001285353569606949
305.06739383359         0.003382482718550267
306.05476896839         0.00018276118317449834
306.06108890839005      0.007633841509371595
306.06828399189         0.0001962476983038295
307.06197906668996      0.00020563519410278405
307.06444374359006      0.0005411409800581896

FORMULA: C11H13ClO2
MONOISOTOPIC_MASS: 212.06041
MZ: 167.0633086
ADDUCT: [M-COOH]-
COMPOUND_NAME: Fenvalerate free acid
IONMODE: esi-
RETENTION_TIME: 585.0
NUM PEAKS: 12
212.06040738990998      0.6686191159584837
213.06376222511         0.0802094248709936
213.06462452731         0.0005107280182799555
213.06668413583003      0.0010058718938969825
214.05745729990997      0.21393587716568685
214.06465238341         0.002749888337793964
214.06711706031         0.004373703465559694
215.06081213510998      0.025664347993001095
215.06373404583002      0.0003218455482366488
215.06800721861         0.0003298843194420455
216.06170229340998      0.0008798727999427607
216.06416697031         0.001399439628682733

FORMULA: C12H4Cl2F6N4OS
MONOISOTOPIC_MASS: 435.93871
MZ: 434.9314336
ADDUCT: [M-H]-
COMPOUND_NAME: Fipronil
IONMODE: esi-
RETENTION_TIME: 750.0
NUM PEAKS: 41
435.93870638238         0.47080247470679776
436.93574127758006      0.0068836933278553615
436.93809411838004      0.003727063592106247
436.9420612175801       0.0616132206966273
436.94292351978004      0.00017981239929373485
436.9449831283          0.00021793112474154062
437.93450223828006      0.02107575162110719
437.93575629238         0.3012822636809832
437.93909611278         0.000900858723143261
437.9414489535801       0.0004877552773991209
437.94295137588006      0.0009681552648587076
437.94541605278005      0.003695647401167741
438.9315371334801       0.0003081526088071296
438.93279118758005      0.0044051057921764974
438.93514402838         0.00238507275606836
438.93785707348         0.0027581523159734334
438.9391111275801       0.03942836242676159
438.93997342978         0.00011506797352937334
438.9420330383          0.00013946142196802276
438.94630621108         0.00012670104174683925
438.94877088798         0.0001343455242071713
439.93155214828005      0.013487078973278053
439.93280620238         0.048200151488831416
439.93614602278         0.0005764896531913725
439.9384988635801       0.0003121309296189883
439.94000128588004      0.0006195549629872872
439.94121190868         0.0001654378447239649
439.94246596278003      0.0023649684838296012
440.9285870434801       0.00019719716978639743
440.92984109758004      0.000704743664340165
440.93219393838         0.00038157197423379524
440.93490698348         0.0017650339961592903
440.93616103758006      0.006307882245397554
440.94335612108         8.10802379320529e-05
440.94582079798         8.59721981575227e-05
441.92860205828003      0.002157708328765679
441.93319593278         9.22287567680737e-05
441.93705119588003      9.911849010556108e-05
441.9382618186801       0.00010586921487186364
441.93951587278         0.0003783556250347367
442.93195689348         0.0002823760846668956

FORMULA: C12H4Cl2F6N4O2S
MONOISOTOPIC_MASS: 451.93362
MZ: 450.9263436
ADDUCT: [M-H]-
COMPOUND_NAME: Fipronil sulfone
IONMODE: esi-
RETENTION_TIME: 771.0
NUM PEAKS: 45
451.93362100258         0.4696562072151212
452.93065589778007      0.006866933530895276
452.93300873858004      0.0037179892731199174
452.9369758377801       0.061463210372263516
452.93783813998004      0.00035874921649525944
452.9398977485          0.00021740052565352323
453.92941685848007      0.021024438277945666
453.9300436337801       5.4361434629994826e-05
453.93067091258         0.3005487287417471
453.93401073298         0.0008986653934043392
453.9363635737801       0.00048656773474925583
453.93786599608006      0.0019315961751138447
453.94033067298005      0.0036866495714955503
454.9264517536801       0.0003074023465699336
454.92770580778006      0.0043943806370674195
454.93005864858003      0.0023792657955861167
454.93277169368         0.0027514370149570957
454.9340257477801       0.03933236579860456
454.93488804998003      0.0002295756327678247
454.9369476585          0.0001391218738497923
454.94122083128         0.0002527851229077919
454.94368550818         0.00013401843181636168
455.92646676848005      0.013454241847274475
455.92772082258         0.04808279809815533
455.92863102848         5.438548138872218e-05
455.93106064298         0.0005750860680697082
455.9334134837801       0.0003113709813243413
455.93366185198         8.646904680000457e-05
455.93491590608005      0.0012360930526506965
455.93612652888         0.00016503505154956996
455.93738058298004      0.002359210471419955
456.9235016636801       0.0001967170518657821
456.92475571778004      0.0007030278178954298
456.92710855858         0.00038064295713363775
456.92982160368         0.0017607366502441879
456.93107565778007      0.006292524381436183
456.93827074128         0.00016176566213243712
456.94073541818         8.576288078722358e-05
457.92351667848004      0.0021524549347275023
457.92811055298         9.200420649198004e-05
457.93071176198         5.5334437599263746e-05
457.93196581608004      0.00019775433065367097
457.9331764388801       0.00010561145403606405
457.93443049298         0.00037743443881212726
458.92687151368         0.00028168858079070605

FORMULA: C16H22ClN3O2
MONOISOTOPIC_MASS: 323.14005
MZ: 322.1327736
ADDUCT: [M-H]-
COMPOUND_NAME: Hydroxy-tebuconazole
IONMODE: esi-
RETENTION_TIME: 696.6
NUM PEAKS: 19
323.14005469294005      0.6258549390105427
324.13708958814004      0.0068630588718048054
324.14340952814007      0.10920627525119539
324.14427183034         0.00047806239023447886
324.14633143886005      0.0015933709562105855
325.13710460294004      0.20025276298563327
325.14044442334006      0.001197544430031012
325.14429968644004      0.0025740083656876894
325.14676436334         0.008932289415400379
325.14968627406006      0.00027802945439128735
326.13413949814003      0.0021959505565055937
326.14045943814006      0.034942375607030354
326.14132174034         0.00015296406332643446
326.14338134886003      0.0005098257064914771
326.14765452164005      0.00044914220302643364
326.15011919854004      0.000454593786437563
327.13749433334004      0.0003831743842924692
327.14134959644         0.0008235970590757153
327.14381427334         0.0028580355026823906

FORMULA: C16H11ClF6N2O
MONOISOTOPIC_MASS: 396.04641
MZ: 395.0391336
ADDUCT: [M-H]-
COMPOUND_NAME: Fluopyram
IONMODE: esi-
RETENTION_TIME: 725.4
NUM PEAKS: 16
396.04640969576997      0.6305310480851318
397.04344459097         0.004609557725256582
397.04976453097004      0.11002221585160281
397.05062683317         0.00024081712963804828
397.05268644169007      0.0008026379568053155
398.04345960576995      0.20174896235043996
398.04679942616997      0.0008043279654012039
398.05065468927         0.001296620104303129
398.05311936617         0.008999027499561298
399.04049450097         0.0014749051466842408
399.04681444097         0.03520344945893934
399.04973635169006      0.00025681744843544373
399.05647420136995      0.00045799030853479734
400.04384933616996      0.0002573581949722229
400.04770459927         0.0004148753045552745
400.05016927617         0.0028793894697385913

FORMULA: C10H11Cl1O3
MONOISOTOPIC_MASS: 214.03967
MZ: 213.0323936
ADDUCT: [M-H]-
COMPOUND_NAME: Mecoprop
IONMODE: esi-
RETENTION_TIME: 544.8
NUM PEAKS: 12
214.03967194557         0.6744794061799103
215.04302678077         0.0735567652056442
215.04388908297003      0.0007728066449201607
215.04594869149         0.0008585822603463817
216.03672185557         0.21581097510866018
216.04391693907002      0.004160985699184298
216.04638161597         0.00360984923494279
217.04007669077         0.02353571818415836
217.04299860148998      0.00027471776472138225
217.04727177427         0.0004537850159613355
218.04096684907         0.001331377018966573
218.04343152597         0.001155031682584023

FORMULA: C7H9NO2S
MONOISOTOPIC_MASS: 171.0354
MZ: 170.0281236
ADDUCT: [M-H]-
COMPOUND_NAME: p-Toluenesulfonamide
IONMODE: esi-
RETENTION_TIME: 362.4
NUM PEAKS: 13
171.03539970912996      0.872822898449732
172.03243460433         0.0031904277723898765
172.03478744512998      0.006909620535012185
172.03875454432998      0.06663127130849118
172.03961684652998      0.0006667100873949255
172.04167645504998      0.0009090529338763793
173.03119556503         0.03907243399346518
173.03578943953002      0.0002435571510209389
173.03814228033         0.0005274802039736292
173.03964470262997      0.0035897351004775587
173.04210937953         0.0021799838812357726
174.03455040022996      0.0029827883236402406
174.04299953782999      0.0002740402592901377

FORMULA: C12H7Cl3O2
MONOISOTOPIC_MASS: 287.95116
MZ: 286.9438836
ADDUCT: [M-H]-
COMPOUND_NAME: Triclosan
IONMODE: esi-
RETENTION_TIME: 811.8
NUM PEAKS: 20
287.95116265629         0.3799357847023673
288.95451749149004      0.0497216319179115
288.95537979369         0.0002902158280600649
288.95743940221         0.0003077717627701422
289.94821256629         0.3647004404761058
289.95540764979         0.0015625951435234043
289.95787232669         0.002982373226097354
290.95156740149         0.04772780504436684
290.95242970369003      0.00027857823502873636
290.95448931221         0.00029543018048775816
290.95876248499         0.0002044945058909127
291.94526247629         0.11669201010521615
291.95245755979005      0.0014999354103358256
291.95492223669004      0.00286278069351616
292.94861731149         0.015271310068247473
292.95581239499006      0.00019629431966189514
293.94231238629004      0.012445853922029126
293.94950746979003      0.000479929439711075
293.95197214669         0.0009159945986922722
294.94566722149005      0.0016287704199803204

FORMULA: C18H15Cl3O8
MONOISOTOPIC_MASS: 463.98325
MZ: 462.9759736
ADDUCT: [M-H]-
COMPOUND_NAME: Triclosan glucuronide
IONMODE: esi-
RETENTION_TIME: 665.4
NUM PEAKS: 31
463.98325063565         0.3505039917519966
464.98660547085         0.06880490532355557
464.98746777305         0.0010709368298577136
464.98952738157         0.0006084217898107082
465.98030054565004      0.33644885616848297
465.98749562915         0.005766193734304759
465.98996030604997      0.006378113677872135
465.99082260824997      0.00021022786878274966
465.99288221677         0.00011943488413773688
466.98365538085         0.06604584324183854
466.98451768305         0.001027992490565627
466.98657729157003      0.0005840242053352531
466.99085046435         0.0011319198163279069
466.99331514125         0.0003709752289619021
467.97735045565         0.10765244284500201
467.98454553915         0.005534970590935241
467.98701021605         0.006122352674804913
467.98787251824996      0.00020179777592016867
467.98993212677         0.00011464557066496793
468.98070529085         0.02113247298775634
468.98156759305         0.0003289234033843451
468.98362720157         0.0001868683196041746
468.98790037435         0.0010865300722378841
468.99036505125         0.000356099201116622
469.97440036565         0.011481733640464509
469.98159544915         0.001771006482159174
469.98406012605         0.00195894921120294
470.97775520085         0.002253896145757499
470.98495028434996      0.00034765348241335987
471.97864535915         0.0001888877220646531
471.98111003605004      0.00020893286268119693

FORMULA: C12H7Cl3O5S
MONOISOTOPIC_MASS: 367.90798
MZ: 366.9007036
ADDUCT: [M-H]-
COMPOUND_NAME: Triclosan sulfate
IONMODE: esi-
RETENTION_TIME: 695.4
NUM PEAKS: 47
367.90797769099004      0.3582807197651787
368.90736542699005      0.00283629568264701
368.91133252619         0.046887665728575466
368.91219482839         0.0006841862490398333
368.91425443691         0.0002902298049526087
369.90377354688997      0.016038648618202322
369.90502760099         0.34391373904097206
369.91072026219         0.00037118180392881924
369.91222268449         0.003683831158216047
369.91468736139007      0.00281238795890631
369.91554966359         8.95384383566415e-05
370.90441533699004      0.002722560828515179
370.90712838209004      0.002098954126365573
370.9083824361901       0.04500748029697592
370.90924473839004      0.0006567505258500255
370.91130434691         0.00027859165145085937
370.91557751969003      0.00048209751297851526
370.91804219659         0.00010223695434088719
371.90082345689007      0.015395502216991952
371.90207751099         0.11004095706355783
371.90777017219         0.000356297492471265
371.90801854039         0.00016490888360985926
371.90927259449006      0.003536110311623995
371.91048321729         0.00012589821266554652
371.91173727139005      0.002699611799415841
371.91259957359006      8.5947966006389e-05
372.90146524699         0.0008711289059547321
372.90417829209         0.0020147865119478827
372.9054323461901       0.014400896633874864
372.90629464839003      0.0002101383231099177
372.90835425691         8.91400618104339e-05
372.9126274296901       0.0004627655051588093
372.91509210659         9.813727419823307e-05
373.89787336689005      0.004926048616598276
373.89912742099         0.011736482007795156
373.90482008219         0.000114003346246696
373.90506845039005      0.0001582960724219558
373.90632250449005      0.0011314376798626903
373.90753312729         0.00012084972109233689
373.90878718139004      0.0008637859799849449
374.89851515699         9.291075799443278e-05
374.90122820209         0.0006446646669939497
374.90248225619007      0.0015359359710218567
374.90967733969006      0.00014806956891480705
375.89492327689004      0.0005253905682121356
375.90337241449004      0.0001206741410380516
375.90583709139         9.21275939723387e-05

FORMULA: C9H9N4Cl
MONOISOTOPIC_MASS: 208.05157
MZ: 207.0442936
ADDUCT: [M-H]-
COMPOUND_NAME: acetamiprid-N-desmethyl
IONMODE: esi-
RETENTION_TIME: 402.6
NUM PEAKS: 10
208.05157403723         0.6770705261062386
209.04860893243         0.009899578089404932
209.05492887243         0.06645541069767921
209.05785078315         0.0007051750696404852
210.04862394723         0.2166400472979677
210.05196376762999      0.0009716573123461049
210.05828370763         0.0028989736359896824
211.04565884243         0.00316753570392768
211.05197878243         0.021263520950389272
212.05533361763         0.0009275751364161758

FORMULA: C8H6Cl2O3
MONOISOTOPIC_MASS: 219.9694
MZ: 218.9621236
ADDUCT: [M-H]-
COMPOUND_NAME: 2,4-Dichlorophenoxyacetic acid ou 2,4-D
IONMODE: esi-
RETENTION_TIME: 484.2
NUM PEAKS: 15
219.96939951422002      0.5225635453179658
220.97275434942         0.04559141009293289
220.97361665162         0.0005987441225255755
220.97567626014         0.0003628364355486698
221.96644942422         0.334405905467267
221.97364450772002      0.0032237892203384913
221.97610918462         0.0017402233721379868
222.96980425942002      0.029175469491236544
222.97066656162         0.0003831564069677663
222.97699934292         0.00028126167183781817
223.96349933422         0.053499383287126764
223.97069441772         0.002063010638461091
223.97315909462         0.0011136271898205391
224.96685416942         0.004667589894121415
225.96774432772         0.0003300473917116677

FORMULA: C9H15N3O1
MONOISOTOPIC_MASS: 181.12151
MZ: 180.1142336
ADDUCT: [M-H]-
COMPOUND_NAME: 2-diethylamino-6-methyl pyrimidin-4-ol/one
IONMODE: esi-
RETENTION_TIME: 451.8
NUM PEAKS: 7
181.12151211685         0.8942404353969552
182.11854701205002      0.009806145755405286
182.12486695205         0.08777093833715552
182.12778886277         0.0015522658201573055
183.12190184725         0.0009624867992474222
183.12575711034998      0.001838910439284071
183.12822178725         0.0038288174517951763

FORMULA: C5H2Cl3N1O1
MONOISOTOPIC_MASS: 196.9202
MZ: 195.9129236
ADDUCT: [M-H]-
COMPOUND_NAME: 3,5,6-Trichloro-2-pyridinol
IONMODE: esi-
RETENTION_TIME: 499.2
NUM PEAKS: 18
196.92019687894         0.4096301224654774
197.91723177414002      0.0014973201567495226
197.92355171414002      0.022336535751334128
197.92441401634         0.00015644899740464434
198.91724678894002      0.39320404160527056
198.92444187244         0.0008423608222464233
198.92690654934         0.0004871915437934384
199.91428168414004      0.0014372779366599636
199.92060162414         0.021440845414451643
199.92146392634         0.0001501754258557562
200.91429669894         0.1258122143656151
200.92149178244         0.0008085823322847721
200.92395645934002      0.00046765526642058853
201.91133159414002      0.00045988113227880015
201.91765153414         0.006860357356578218
202.91134660894002      0.01341857458955081
202.91854169244         0.00025871945086410113
203.91470144414004      0.0007316953871640758

FORMULA: C13H10O3
MONOISOTOPIC_MASS: 214.06299
MZ: 213.0557136
ADDUCT: [M-H]-
COMPOUND_NAME: 3-phenoxybenzoic acid
IONMODE: esi-
RETENTION_TIME: 517.8
NUM PEAKS: 7
214.0629941833          0.8617733308802118
215.0663490185          0.122177245699438
215.06721132069998      0.0009874047308444638
215.06927092921998      0.0009972718993668725
216.0672391768          0.005316435865759403
216.0697038537          0.007994577352289409
217.07059401200002      0.0007537335720899435

FORMULA: C13H9FO3
MONOISOTOPIC_MASS: 232.05357
MZ: 231.0462936
ADDUCT: [M-H]-
COMPOUND_NAME: 4-Fluoro-3-phenoxybenzoic acid
IONMODE: esi-
RETENTION_TIME: 532.2
NUM PEAKS: 7
232.05357231473         0.8618592816844952
233.05692714993         0.12218943130806233
233.05778945213         0.0009875032117648266
233.05984906065         0.0008976342279693313
234.05781730823         0.005316966111848727
234.06028198513         0.007995374708541584
235.06117214343         0.0007538087473180632

FORMULA: C6H5NO3
MONOISOTOPIC_MASS: 139.02694
MZ: 138.0196636
ADDUCT: [M-H]-
COMPOUND_NAME: 4-nitrophenol
IONMODE: esi-
RETENTION_TIME: 165.0
NUM PEAKS: 7
139.02694302615         0.9269841016630451
140.02397792135         0.0033884031087665005
140.03029786135         0.06065651638046227
140.03116016355         0.0010621220854732224
140.03321977207         0.0005363679535105604
141.03118801965002      0.005718732929500704
141.03365269655         0.0016537558792417216

FORMULA: C6H4Cl1N1O2
MONOISOTOPIC_MASS: 156.99306
MZ: 155.9857836
ADDUCT: [M-H]-
COMPOUND_NAME: 6-Chloronicotinic acid
IONMODE: esi-
RETENTION_TIME: 172.2
NUM PEAKS: 12
156.99305610368         0.704139572577026
157.99009099888         0.002573839953074813
157.99641093888         0.04607485008807111
157.99727324108002      0.0005378604947290939
157.99933284960002      0.00032594121159262304
158.99010601368         0.22530124178455518
158.99730109718         0.0028959764275256236
158.99976577408         0.0012561973348484581
159.98714090887998      0.0008235431726414189
159.99346084888         0.014742419463641344
160.99435100718         0.0009266161294023132
160.99681568408         0.00040194136289200877

FORMULA: C19H28N2O5S
MONOISOTOPIC_MASS: 396.17189
MZ: 395.1646136
ADDUCT: [M-H]-
COMPOUND_NAME: Acetochlor mercapturate
IONMODE: esi-
RETENTION_TIME: 607.2
NUM PEAKS: 23
396.17189318706         0.7563049373308047
397.16892808226004      0.005529039810347622
397.17128092306         0.005987217034513899
397.17524802225995      0.15671279798884924
397.17611032445996      0.001444268166430542
397.17816993298         0.0024506173214130216
398.1676890429599       0.03385643845421131
398.17228291746         0.0011456639459862753
398.17463575825997      0.0012406021530899731
398.17613818056         0.007776303718151215
398.17860285746         0.015381578359087114
398.17946515965997      0.0002992646143582652
398.18152476817994      0.0005077886951180841
399.16472393815997      0.00024751074177906736
399.17104387816         0.007015341217818888
399.1739657888799       0.00010970333581328158
399.17563775266007      0.0001124485044266948
399.1779905934599       0.00012176682105799301
399.17949301576         0.0016113160889620608
399.18195769266         0.000950566483189085
400.17193403645996      0.00034811084159256853
400.17439871335995      0.000688565465248683
400.18284785096         0.00015815290775033733

FORMULA: C19H28N2O5S1
MONOISOTOPIC_MASS: 396.17189
MZ: 395.1646136
ADDUCT: [M-H]-
COMPOUND_NAME: Alachlor mercapturate
IONMODE: esi-
RETENTION_TIME: 607.2
NUM PEAKS: 23
396.17189318706         0.7563049373308047
397.16892808226004      0.005529039810347622
397.17128092306         0.005987217034513899
397.17524802225995      0.15671279798884924
397.17611032445996      0.001444268166430542
397.17816993298         0.0024506173214130216
398.1676890429599       0.03385643845421131
398.17228291746         0.0011456639459862753
398.17463575825997      0.0012406021530899731
398.17613818056         0.007776303718151215
398.17860285746         0.015381578359087114
398.17946515965997      0.0002992646143582652
398.18152476817994      0.0005077886951180841
399.16472393815997      0.00024751074177906736
399.17104387816         0.007015341217818888
399.1739657888799       0.00010970333581328158
399.17563775266007      0.0001124485044266948
399.1779905934599       0.00012176682105799301
399.17949301576         0.0016113160889620608
399.18195769266         0.000950566483189085
400.17193403645996      0.00034811084159256853
400.17439871335995      0.000688565465248683
400.18284785096         0.00015815290775033733

FORMULA: C10H12N2O3S1
MONOISOTOPIC_MASS: 240.05686
MZ: 239.0495836
ADDUCT: [M-H]-
COMPOUND_NAME: Bentazone
IONMODE: esi-
RETENTION_TIME: 747.6
NUM PEAKS: 16
240.05686343034         0.8395150928104418
241.05389832554         0.00613735563583442
241.05625116634002      0.006645942418603682
241.06021826554002      0.09155507789066666
241.06108056774002      0.0009619016330079304
241.06314017626         0.001165816737864122
242.05265928624002      0.037581390346902
242.05725316074         0.000669322181451737
242.05960600154         0.0007247871789358469
242.06110842384         0.0051791207610301
242.06357310074         0.004493128904659751
243.04969418144         0.00027474235999248663
243.05601412144         0.004098517286844142
243.06446325904002      0.0005648198689244362
244.05690427974002      0.00023184640829079735
244.05936895664001      0.00020113757654991151

FORMULA: C4H11O3P1S1
MONOISOTOPIC_MASS: 170.01665
MZ: 169.0093736
ADDUCT: [M-H]-
COMPOUND_NAME: Diethylthiophosphate
IONMODE: esi-
RETENTION_TIME: 177.0
NUM PEAKS: 10
170.01665238827         0.9026048715935157
171.01604012427         0.007145386729474967
171.02000722347         0.039374186375419326
171.02086952566998      0.0010341887922945955
171.02292913418998      0.0011489758230597536
172.01244824417         0.040405641660132115
172.01939495947         0.000311702049994582
172.02089738177         0.005568333040716883
172.02336205867         0.0006441051622577155
173.01580307937         0.0017626087731342562

FORMULA: C14H17Cl2NO2
MONOISOTOPIC_MASS: 301.06363
MZ: 300.0563536
ADDUCT: [M-H]-
COMPOUND_NAME: Fenhexamid
IONMODE: esi-
RETENTION_TIME: 689.4
NUM PEAKS: 24
301.06363425319         0.48837284631402844
302.06066914839005      0.001785148275702697
302.06698908839         0.07456473399185076
302.06785139059         0.0003730460138312775
302.06991099911         0.000960773381588713
303.06068416319         0.31252613264076146
303.06402398359006      0.00027255632109446197
303.06787924669         0.0020085737343136017
303.07034392359         0.005285678669198606
304.05771905839003      0.0011423761394730554
304.06403899839         0.04771646933637238
304.06490130059         0.00023872463196853257
304.06696090911         0.000614831048774224
304.07123408189         0.0003066689053916182
304.07369875879         0.00023057630596894335
305.05773407319         0.04999898352281978
305.06107389359005      0.00017441791369308352
305.06492915668997      0.001285353569606949
305.06739383359         0.003382482718550267
306.05476896839         0.00018276118317449834
306.06108890839005      0.007633841509371595
306.06828399189         0.0001962476983038295
307.06197906668996      0.00020563519410278405
307.06444374359006      0.0005411409800581896

FORMULA: C11H13ClO2
MONOISOTOPIC_MASS: 212.06041
MZ: 167.0633086
ADDUCT: [M-COOH]-
COMPOUND_NAME: Fenvalerate free acid
IONMODE: esi-
RETENTION_TIME: 585.0
NUM PEAKS: 12
212.06040738990998      0.6686191159584837
213.06376222511         0.0802094248709936
213.06462452731         0.0005107280182799555
213.06668413583003      0.0010058718938969825
214.05745729990997      0.21393587716568685
214.06465238341         0.002749888337793964
214.06711706031         0.004373703465559694
215.06081213510998      0.025664347993001095
215.06373404583002      0.0003218455482366488
215.06800721861         0.0003298843194420455
216.06170229340998      0.0008798727999427607
216.06416697031         0.001399439628682733

FORMULA: C12H4Cl2F6N4OS
MONOISOTOPIC_MASS: 435.93871
MZ: 434.9314336
ADDUCT: [M-H]-
COMPOUND_NAME: Fipronil
IONMODE: esi-
RETENTION_TIME: 750.0
NUM PEAKS: 41
435.93870638238         0.47080247470679776
436.93574127758006      0.0068836933278553615
436.93809411838004      0.003727063592106247
436.9420612175801       0.0616132206966273
436.94292351978004      0.00017981239929373485
436.9449831283          0.00021793112474154062
437.93450223828006      0.02107575162110719
437.93575629238         0.3012822636809832
437.93909611278         0.000900858723143261
437.9414489535801       0.0004877552773991209
437.94295137588006      0.0009681552648587076
437.94541605278005      0.003695647401167741
438.9315371334801       0.0003081526088071296
438.93279118758005      0.0044051057921764974
438.93514402838         0.00238507275606836
438.93785707348         0.0027581523159734334
438.9391111275801       0.03942836242676159
438.93997342978         0.00011506797352937334
438.9420330383          0.00013946142196802276
438.94630621108         0.00012670104174683925
438.94877088798         0.0001343455242071713
439.93155214828005      0.013487078973278053
439.93280620238         0.048200151488831416
439.93614602278         0.0005764896531913725
439.9384988635801       0.0003121309296189883
439.94000128588004      0.0006195549629872872
439.94121190868         0.0001654378447239649
439.94246596278003      0.0023649684838296012
440.9285870434801       0.00019719716978639743
440.92984109758004      0.000704743664340165
440.93219393838         0.00038157197423379524
440.93490698348         0.0017650339961592903
440.93616103758006      0.006307882245397554
440.94335612108         8.10802379320529e-05
440.94582079798         8.59721981575227e-05
441.92860205828003      0.002157708328765679
441.93319593278         9.22287567680737e-05
441.93705119588003      9.911849010556108e-05
441.9382618186801       0.00010586921487186364
441.93951587278         0.0003783556250347367
442.93195689348         0.0002823760846668956

FORMULA: C12H4Cl2F6N4O2S
MONOISOTOPIC_MASS: 451.93362
MZ: 450.9263436
ADDUCT: [M-H]-
COMPOUND_NAME: Fipronil sulfone
IONMODE: esi-
RETENTION_TIME: 771.0
NUM PEAKS: 45
451.93362100258         0.4696562072151212
452.93065589778007      0.006866933530895276
452.93300873858004      0.0037179892731199174
452.9369758377801       0.061463210372263516
452.93783813998004      0.00035874921649525944
452.9398977485          0.00021740052565352323
453.92941685848007      0.021024438277945666
453.9300436337801       5.4361434629994826e-05
453.93067091258         0.3005487287417471
453.93401073298         0.0008986653934043392
453.9363635737801       0.00048656773474925583
453.93786599608006      0.0019315961751138447
453.94033067298005      0.0036866495714955503
454.9264517536801       0.0003074023465699336
454.92770580778006      0.0043943806370674195
454.93005864858003      0.0023792657955861167
454.93277169368         0.0027514370149570957
454.9340257477801       0.03933236579860456
454.93488804998003      0.0002295756327678247
454.9369476585          0.0001391218738497923
454.94122083128         0.0002527851229077919
454.94368550818         0.00013401843181636168
455.92646676848005      0.013454241847274475
455.92772082258         0.04808279809815533
455.92863102848         5.438548138872218e-05
455.93106064298         0.0005750860680697082
455.9334134837801       0.0003113709813243413
455.93366185198         8.646904680000457e-05
455.93491590608005      0.0012360930526506965
455.93612652888         0.00016503505154956996
455.93738058298004      0.002359210471419955
456.9235016636801       0.0001967170518657821
456.92475571778004      0.0007030278178954298
456.92710855858         0.00038064295713363775
456.92982160368         0.0017607366502441879
456.93107565778007      0.006292524381436183
456.93827074128         0.00016176566213243712
456.94073541818         8.576288078722358e-05
457.92351667848004      0.0021524549347275023
457.92811055298         9.200420649198004e-05
457.93071176198         5.5334437599263746e-05
457.93196581608004      0.00019775433065367097
457.9331764388801       0.00010561145403606405
457.93443049298         0.00037743443881212726
458.92687151368         0.00028168858079070605

FORMULA: C16H22ClN3O2
MONOISOTOPIC_MASS: 323.14005
MZ: 322.1327736
ADDUCT: [M-H]-
COMPOUND_NAME: Hydroxy-tebuconazole
IONMODE: esi-
RETENTION_TIME: 696.6
NUM PEAKS: 19
323.14005469294005      0.6258549390105427
324.13708958814004      0.0068630588718048054
324.14340952814007      0.10920627525119539
324.14427183034         0.00047806239023447886
324.14633143886005      0.0015933709562105855
325.13710460294004      0.20025276298563327
325.14044442334006      0.001197544430031012
325.14429968644004      0.0025740083656876894
325.14676436334         0.008932289415400379
325.14968627406006      0.00027802945439128735
326.13413949814003      0.0021959505565055937
326.14045943814006      0.034942375607030354
326.14132174034         0.00015296406332643446
326.14338134886003      0.0005098257064914771
326.14765452164005      0.00044914220302643364
326.15011919854004      0.000454593786437563
327.13749433334004      0.0003831743842924692
327.14134959644         0.0008235970590757153
327.14381427334         0.0028580355026823906

FORMULA: C16H11ClF6N2O
MONOISOTOPIC_MASS: 396.04641
MZ: 395.0391336
ADDUCT: [M-H]-
COMPOUND_NAME: Fluopyram
IONMODE: esi-
RETENTION_TIME: 725.4
NUM PEAKS: 16
396.04640969576997      0.6305310480851318
397.04344459097         0.004609557725256582
397.04976453097004      0.11002221585160281
397.05062683317         0.00024081712963804828
397.05268644169007      0.0008026379568053155
398.04345960576995      0.20174896235043996
398.04679942616997      0.0008043279654012039
398.05065468927         0.001296620104303129
398.05311936617         0.008999027499561298
399.04049450097         0.0014749051466842408
399.04681444097         0.03520344945893934
399.04973635169006      0.00025681744843544373
399.05647420136995      0.00045799030853479734
400.04384933616996      0.0002573581949722229
400.04770459927         0.0004148753045552745
400.05016927617         0.0028793894697385913

FORMULA: C10H11Cl1O3
MONOISOTOPIC_MASS: 214.03967
MZ: 213.0323936
ADDUCT: [M-H]-
COMPOUND_NAME: Mecoprop
IONMODE: esi-
RETENTION_TIME: 544.8
NUM PEAKS: 12
214.03967194557         0.6744794061799103
215.04302678077         0.0735567652056442
215.04388908297003      0.0007728066449201607
215.04594869149         0.0008585822603463817
216.03672185557         0.21581097510866018
216.04391693907002      0.004160985699184298
216.04638161597         0.00360984923494279
217.04007669077         0.02353571818415836
217.04299860148998      0.00027471776472138225
217.04727177427         0.0004537850159613355
218.04096684907         0.001331377018966573
218.04343152597         0.001155031682584023

FORMULA: C7H9NO2S
MONOISOTOPIC_MASS: 171.0354
MZ: 170.0281236
ADDUCT: [M-H]-
COMPOUND_NAME: p-Toluenesulfonamide
IONMODE: esi-
RETENTION_TIME: 362.4
NUM PEAKS: 13
171.03539970912996      0.872822898449732
172.03243460433         0.0031904277723898765
172.03478744512998      0.006909620535012185
172.03875454432998      0.06663127130849118
172.03961684652998      0.0006667100873949255
172.04167645504998      0.0009090529338763793
173.03119556503         0.03907243399346518
173.03578943953002      0.0002435571510209389
173.03814228033         0.0005274802039736292
173.03964470262997      0.0035897351004775587
173.04210937953         0.0021799838812357726
174.03455040022996      0.0029827883236402406
174.04299953782999      0.0002740402592901377

FORMULA: C12H7Cl3O2
MONOISOTOPIC_MASS: 287.95116
MZ: 286.9438836
ADDUCT: [M-H]-
COMPOUND_NAME: Triclosan
IONMODE: esi-
RETENTION_TIME: 811.8
NUM PEAKS: 20
287.95116265629         0.3799357847023673
288.95451749149004      0.0497216319179115
288.95537979369         0.0002902158280600649
288.95743940221         0.0003077717627701422
289.94821256629         0.3647004404761058
289.95540764979         0.0015625951435234043
289.95787232669         0.002982373226097354
290.95156740149         0.04772780504436684
290.95242970369003      0.00027857823502873636
290.95448931221         0.00029543018048775816
290.95876248499         0.0002044945058909127
291.94526247629         0.11669201010521615
291.95245755979005      0.0014999354103358256
291.95492223669004      0.00286278069351616
292.94861731149         0.015271310068247473
292.95581239499006      0.00019629431966189514
293.94231238629004      0.012445853922029126
293.94950746979003      0.000479929439711075
293.95197214669         0.0009159945986922722
294.94566722149005      0.0016287704199803204

FORMULA: C18H15Cl3O8
MONOISOTOPIC_MASS: 463.98325
MZ: 462.9759736
ADDUCT: [M-H]-
COMPOUND_NAME: Triclosan glucuronide
IONMODE: esi-
RETENTION_TIME: 665.4
NUM PEAKS: 31
463.98325063565         0.3505039917519966
464.98660547085         0.06880490532355557
464.98746777305         0.0010709368298577136
464.98952738157         0.0006084217898107082
465.98030054565004      0.33644885616848297
465.98749562915         0.005766193734304759
465.98996030604997      0.006378113677872135
465.99082260824997      0.00021022786878274966
465.99288221677         0.00011943488413773688
466.98365538085         0.06604584324183854
466.98451768305         0.001027992490565627
466.98657729157003      0.0005840242053352531
466.99085046435         0.0011319198163279069
466.99331514125         0.0003709752289619021
467.97735045565         0.10765244284500201
467.98454553915         0.005534970590935241
467.98701021605         0.006122352674804913
467.98787251824996      0.00020179777592016867
467.98993212677         0.00011464557066496793
468.98070529085         0.02113247298775634
468.98156759305         0.0003289234033843451
468.98362720157         0.0001868683196041746
468.98790037435         0.0010865300722378841
468.99036505125         0.000356099201116622
469.97440036565         0.011481733640464509
469.98159544915         0.001771006482159174
469.98406012605         0.00195894921120294
470.97775520085         0.002253896145757499
470.98495028434996      0.00034765348241335987
471.97864535915         0.0001888877220646531
471.98111003605004      0.00020893286268119693

FORMULA: C12H7Cl3O5S
MONOISOTOPIC_MASS: 367.90798
MZ: 366.9007036
ADDUCT: [M-H]-
COMPOUND_NAME: Triclosan sulfate
IONMODE: esi-
RETENTION_TIME: 695.4
NUM PEAKS: 47
367.90797769099004      0.3582807197651787
368.90736542699005      0.00283629568264701
368.91133252619         0.046887665728575466
368.91219482839         0.0006841862490398333
368.91425443691         0.0002902298049526087
369.90377354688997      0.016038648618202322
369.90502760099         0.34391373904097206
369.91072026219         0.00037118180392881924
369.91222268449         0.003683831158216047
369.91468736139007      0.00281238795890631
369.91554966359         8.95384383566415e-05
370.90441533699004      0.002722560828515179
370.90712838209004      0.002098954126365573
370.9083824361901       0.04500748029697592
370.90924473839004      0.0006567505258500255
370.91130434691         0.00027859165145085937
370.91557751969003      0.00048209751297851526
370.91804219659         0.00010223695434088719
371.90082345689007      0.015395502216991952
371.90207751099         0.11004095706355783
371.90777017219         0.000356297492471265
371.90801854039         0.00016490888360985926
371.90927259449006      0.003536110311623995
371.91048321729         0.00012589821266554652
371.91173727139005      0.002699611799415841
371.91259957359006      8.5947966006389e-05
372.90146524699         0.0008711289059547321
372.90417829209         0.0020147865119478827
372.9054323461901       0.014400896633874864
372.90629464839003      0.0002101383231099177
372.90835425691         8.91400618104339e-05
372.9126274296901       0.0004627655051588093
372.91509210659         9.813727419823307e-05
373.89787336689005      0.004926048616598276
373.89912742099         0.011736482007795156
373.90482008219         0.000114003346246696
373.90506845039005      0.0001582960724219558
373.90632250449005      0.0011314376798626903
373.90753312729         0.00012084972109233689
373.90878718139004      0.0008637859799849449
374.89851515699         9.291075799443278e-05
374.90122820209         0.0006446646669939497
374.90248225619007      0.0015359359710218567
374.90967733969006      0.00014806956891480705
375.89492327689004      0.0005253905682121356
375.90337241449004      0.0001206741410380516
375.90583709139         9.21275939723387e-05

FORMULA: C9H9N4Cl
MONOISOTOPIC_MASS: 208.05157
MZ: 207.0442936
ADDUCT: [M-H]-
COMPOUND_NAME: acetamiprid-N-desmethyl
IONMODE: esi-
RETENTION_TIME: 402.6
NUM PEAKS: 10
208.05157403723         0.6770705261062386
209.04860893243         0.009899578089404932
209.05492887243         0.06645541069767921
209.05785078315         0.0007051750696404852
210.04862394723         0.2166400472979677
210.05196376762999      0.0009716573123461049
210.05828370763         0.0028989736359896824
211.04565884243         0.00316753570392768
211.05197878243         0.021263520950389272
212.05533361763         0.0009275751364161758

